JulietBench/Juliet_Based_Patch_Bench/linux/CWE-189-Numeric-Errors/CVE_2012_2384_44afb3a04391a74309d16180d1e4f8386fdfa745/solveri915_gem_do_execbuffer_Snippet_patch2.smt2
; benchmark generated from python API
(set-info :status unknown)
(declare-fun R () (_ BitVec 32))
(declare-fun rdi () (_ BitVec 64))
(assert
 (let (($x57 (and (distinct (_ bv8 32) R) true)))
 (let (($x51 (= (_ bv0 32) R)))
 (let ((?x6 ((_ extract 31 0) rdi)))
 (let (($x10 (= (_ bv0 32) ?x6)))
 (let (($x52 (and $x10 $x51)))
 (let ((?x49 (bvmul (_ bv8 32) ?x6)))
 (let (($x48 (= R ?x49)))
 (let (($x36 (and (distinct (_ bv0 32) ?x6) true)))
 (let (($x7 (and $x36 $x48)))
 (let (($x53 (or $x7 $x52)))
 (let (($x56 (not $x53)))
 (let (($x58 (and $x56 $x57)))
 (let (($x54 (= (_ bv8 32) R)))
 (let (($x55 (and $x53 $x54)))
 (let (($x59 (or $x55 $x58)))
 (not $x59)))))))))))))))))
(check-sat)
